<number of tasks>
50

<cycle time>
1000

<order strength>
0.598


<task times>
1 176
2 233
3 189
4 201
5 35
6 223
7 107
8 221
9 175
10 25
11 182
12 26
13 70
14 80
15 235
16 116
17 170
18 147
19 100
20 134
21 288
22 41
23 221
24 77
25 22
26 180
27 21
28 207
29 99
30 116
31 281
32 75
33 97
34 47
35 192
36 384
37 156
38 223
39 80
40 122
41 234
42 155
43 190
44 48
45 77
46 127
47 75
48 119
49 97
50 22

<precedence relations>
1,5
2,6
2,7
2,8
3,6
3,7
3,8
4,6
4,7
4,8
5,10
6,9
6,10
6,11
6,12
7,10
7,11
7,12
8,10
8,11
8,12
9,13
10,14
10,15
10,16
10,17
10,18
10,19
11,16
11,17
11,18
11,19
12,16
12,17
12,18
12,19
13,23
14,20
15,21
16,22
16,23
16,28
17,23
17,28
17,34
18,23
18,28
18,34
19,23
19,28
20,24
21,28
22,26
23,25
23,27
23,29
24,31
25,33
26,34
27,30
28,46
28,50
29,32
29,39
29,42
30,35
31,37
32,38
33,36
34,39
35,42
36,40
37,41
38,43
39,44
40,45
41,46
42,47
42,49
43,46
43,47
44,46
44,47
45,48
46,48
46,49
47,50

<end>
